num_servers = 4;
sid = [0, 1, 2, 3];
scpu = [5, 4, 7, 8];
sram = [2, 1, 3, 5];

num_vms = 8;
vjob = [0, 0, 1, 2, 2, 2, 3, 3];
vindex = [0, 1, 0, 0, 1, 2, 0, 1];
vcpu = [1, 1, 1, 1, 1, 1, 1, 1];
vram = [1, 1, 1, 1, 1, 1, 1, 1];
vac = [true, true, false, true, true, false, true, true];
